r301.ib.bridges2.psc.edu
2024-11-08 16:46:14.480035
Set parameter Username
Set parameter LicenseID to value 762805
Set parameter TokenServer to value "br017.ib.bridges2.psc.edu"
Set parameter LogFile to value "result1354/grblog_r301.ib.bridges2.psc.edu_RelaxFalse_N-1_PSPS_SpanFalse_PFlow_Lazy0_1354_inst8.txt"
Gurobi Optimizer version 11.0.2 build v11.0.2rc0 (linux64 - "Red Hat Enterprise Linux 8.10 (Ootpa)")

CPU model: AMD EPYC 7742 64-Core Processor, instruction set [SSE2|AVX|AVX2]
Thread count: 128 physical cores, 128 logical processors, using up to 32 threads

Optimize a model with 12418040 rows, 10522515 columns and 50896779 nonzeros
Model fingerprint: 0x03c01a1f
Variable types: 10519170 continuous, 3345 integer (3345 binary)
Coefficient statistics:
  Matrix range     [1e+00, 3e+03]
  Objective range  [1e+00, 1e+01]
  Bounds range     [1e+00, 1e+00]
  RHS range        [1e+00, 4e+04]
Presolve removed 854102 rows and 482 columns (presolve time = 5s) ...
Presolve removed 3821372 rows and 2561939 columns (presolve time = 10s) ...
Presolve removed 4320212 rows and 2894324 columns (presolve time = 15s) ...
Presolve removed 4425865 rows and 2965646 columns (presolve time = 20s) ...
Presolve removed 4439136 rows and 2973589 columns (presolve time = 25s) ...
Presolve removed 4439136 rows and 2973589 columns (presolve time = 31s) ...
Presolve removed 4440108 rows and 2973589 columns (presolve time = 35s) ...
Presolve removed 4440108 rows and 2976551 columns (presolve time = 40s) ...
Presolve removed 5507198 rows and 5101106 columns (presolve time = 46s) ...
Presolve removed 5507198 rows and 5491290 columns (presolve time = 50s) ...
Presolve removed 5511592 rows and 5492063 columns (presolve time = 55s) ...
Presolve removed 5511592 rows and 5492063 columns (presolve time = 60s) ...
Presolve removed 5511592 rows and 5492063 columns (presolve time = 65s) ...
Presolve removed 5511592 rows and 5492063 columns (presolve time = 70s) ...
Presolve removed 5511592 rows and 5492063 columns (presolve time = 75s) ...
Presolve removed 5511592 rows and 5492063 columns (presolve time = 80s) ...
Presolve removed 5511592 rows and 5492063 columns (presolve time = 85s) ...
Presolve removed 5511592 rows and 5492063 columns (presolve time = 90s) ...
Presolve removed 5511592 rows and 5492063 columns (presolve time = 95s) ...
Presolve removed 6450114 rows and 5492075 columns (presolve time = 100s) ...
Presolve removed 6451191 rows and 5492651 columns (presolve time = 105s) ...
Presolve removed 6451191 rows and 5492651 columns (presolve time = 111s) ...
Presolve removed 7141460 rows and 5492651 columns (presolve time = 115s) ...
Presolve removed 7141460 rows and 5493285 columns (presolve time = 122s) ...
Presolve removed 7152706 rows and 5530877 columns (presolve time = 125s) ...
Presolve removed 7171994 rows and 5531100 columns (presolve time = 131s) ...
Presolve removed 7172260 rows and 5531268 columns (presolve time = 135s) ...
Presolve removed 7172260 rows and 5531268 columns (presolve time = 140s) ...
Presolve removed 7182860 rows and 5541890 columns (presolve time = 145s) ...
Presolve removed 7182874 rows and 5541902 columns (presolve time = 150s) ...
Presolve removed 7188177 rows and 5541934 columns (presolve time = 155s) ...
Presolve removed 7188189 rows and 5541949 columns (presolve time = 160s) ...
Presolve removed 7188189 rows and 5541949 columns (presolve time = 166s) ...
Presolve removed 7188189 rows and 5541949 columns (presolve time = 170s) ...
Presolve removed 7398463 rows and 5735381 columns (presolve time = 177s) ...
Presolve removed 7398463 rows and 5735415 columns (presolve time = 180s) ...
Presolve removed 7398469 rows and 5735542 columns (presolve time = 185s) ...
Presolve removed 7401654 rows and 5735732 columns (presolve time = 190s) ...
Presolve removed 7401656 rows and 5735734 columns (presolve time = 195s) ...
Presolve removed 7762881 rows and 5735983 columns (presolve time = 200s) ...
Presolve removed 7762905 rows and 5735993 columns (presolve time = 205s) ...
Presolve removed 7763088 rows and 5735993 columns (presolve time = 210s) ...
Presolve removed 7763089 rows and 5735997 columns (presolve time = 215s) ...
Presolve removed 7763089 rows and 5736008 columns (presolve time = 220s) ...
Presolve removed 7763089 rows and 5736008 columns (presolve time = 225s) ...
Presolve removed 7763089 rows and 5736008 columns (presolve time = 230s) ...
Presolve removed 7763089 rows and 5736008 columns (presolve time = 235s) ...
Presolve removed 7763091 rows and 5736008 columns (presolve time = 240s) ...
Presolve removed 7763090 rows and 5736007 columns
Presolve time: 240.44s
Presolved: 4654950 rows, 4786508 columns, 23156124 nonzeros
Variable types: 4784426 continuous, 2082 integer (2082 binary)
Deterministic concurrent LP optimizer: primal simplex, dual simplex, and barrier
Showing barrier log only...

Root barrier log...

Elapsed ordering time = 5s
Ordering time: 8.02s

Barrier statistics:
 Dense cols : 1962
 AA' NZ     : 2.040e+07
 Factor NZ  : 2.232e+08 (roughly 6.0 GB of memory)
 Factor Ops : 1.130e+11 (roughly 1 second per iteration)
 Threads    : 29

                  Objective                Residual
Iter       Primal          Dual         Primal    Dual     Compl     Time
   0   2.05416313e+05 -4.64256258e+07  1.68e+04 1.80e+00  2.72e+02   303s
   1   2.06771378e+05 -4.64738384e+07  1.57e+04 4.99e+00  2.48e+02   309s
   2   1.98596691e+05 -4.56009526e+07  1.27e+04 3.79e+00  1.92e+02   314s
   3   1.95339215e+05 -4.50410957e+07  1.14e+04 2.86e+00  1.67e+02   320s
   4   1.83884841e+05 -4.40639097e+07  8.55e+03 1.41e-01  1.12e+02   325s
   5   2.17530634e+04 -4.24719843e+07  5.61e+02 1.53e-06  1.02e+01   330s
   6   1.72463754e+04 -2.60236215e+07  3.35e+02 4.44e-08  4.87e+00   335s
   7   1.30423568e+04 -8.72084598e+06  1.29e+02 5.74e-09  1.23e+00   339s
   8   1.16963780e+04 -3.12596610e+06  6.62e+01 1.66e-08  3.83e-01   343s
   9   1.09584258e+04 -1.45195266e+06  3.31e+01 9.75e-09  1.50e-01   347s
  10   1.06022438e+04 -7.20485329e+05  1.78e+01 7.37e-09  6.64e-02   351s
  11   1.03713733e+04 -3.90415125e+05  8.80e+00 4.42e-09  3.35e-02   355s
  12   1.02901838e+04 -2.33921126e+05  6.61e+00 2.42e-09  2.00e-02   359s
  13   1.01102480e+04 -1.42516798e+05  4.38e+00 1.63e-09  1.22e-02   363s
  14   9.46827865e+03 -9.86877795e+04  1.86e+00 1.11e-09  8.36e-03   369s
  15   9.08847514e+03 -5.29415513e+04  1.12e+00 6.29e-10  4.75e-03   373s
  16   8.92636846e+03 -4.07064967e+04  9.87e-01 5.00e-10  3.80e-03   377s
  17   8.60855344e+03 -3.40190817e+04  8.19e-01 4.27e-10  3.25e-03   381s
  18   8.27731007e+03 -2.62747878e+04  6.98e-01 3.41e-10  2.63e-03   385s
  19   7.48888713e+03 -2.24551846e+04  5.34e-01 2.97e-10  2.28e-03   390s
  20   6.95851021e+03 -1.45677048e+04  4.48e-01 2.06e-10  1.64e-03   395s
  21   6.74272007e+03 -1.32805471e+04  4.13e-01 1.93e-10  1.52e-03   401s
  22   6.34902756e+03 -1.09944655e+04  3.52e-01 1.70e-10  1.32e-03   407s
  23   5.83478449e+03 -6.78901744e+03  2.79e-01 1.20e-10  9.58e-04   414s

Barrier performed 23 iterations in 413.71 seconds (282.77 work units)
Barrier solve interrupted - model solved by another algorithm

Concurrent spin time: 38.16s (can be avoided by choosing Method=3)

Solved with dual simplex

Root simplex log...

Iteration    Objective       Primal Inf.    Dual Inf.      Time
  455384    2.9129292e+03   0.000000e+00   0.000000e+00    416s

Root relaxation: objective 2.912929e+03, 455384 iterations, 165.50 seconds (97.60 work units)
Total elapsed time = 449.32s (DegenMoves)
Total elapsed time = 483.87s (DegenMoves)

    Nodes    |    Current Node    |     Objective Bounds      |     Work
 Expl Unexpl |  Obj  Depth IntInf | Incumbent    BestBd   Gap | It/Node Time

     0     0 2912.92916    0  324          - 2912.92916      -     -  494s
     0     0 2915.62739    0  326          - 2915.62739      -     -  498s
H    0     0                    3857.0000000 2915.62739  24.4%     -  508s
H    0     0                    3850.0000000 2915.62739  24.3%     -  518s
H    0     0                    3546.0000000 2915.62739  17.8%     -  524s
     0     0 3178.56105    0  429 3546.00000 3178.56105  10.4%     -  784s
     0     0 3184.02448    0  414 3546.00000 3184.02448  10.2%     - 1103s
     0     0 3264.10159    0  380 3546.00000 3264.10159  7.95%     - 1841s
     0     0 3267.85379    0  385 3546.00000 3267.85379  7.84%     - 2051s
     0     0 3268.85102    0  385 3546.00000 3268.85102  7.82%     - 2140s
     0     0 3268.85102    0  385 3546.00000 3268.85102  7.82%     - 2148s
     0     0 3292.39163    0  325 3546.00000 3292.39163  7.15%     - 2304s
     0     0 3294.56169    0  299 3546.00000 3294.56169  7.09%     - 2592s
     0     0 3294.58771    0  303 3546.00000 3294.58771  7.09%     - 2606s
     0     0 3300.10945    0  286 3546.00000 3300.10945  6.93%     - 2750s
     0     0 3300.71064    0  287 3546.00000 3300.71064  6.92%     - 2842s
     0     0 3300.74184    0  293 3546.00000 3300.74184  6.92%     - 2869s
     0     0 3302.32018    0  284 3546.00000 3302.32018  6.87%     - 2995s
     0     0 3302.58539    0  290 3546.00000 3302.58539  6.86%     - 3229s
     0     0 3302.58539    0  290 3546.00000 3302.58539  6.86%     - 3236s
     0     0 3302.91950    0  299 3546.00000 3302.91950  6.86%     - 3358s
     0     0 3302.92565    0  299 3546.00000 3302.92565  6.85%     - 3382s
     0     0 3303.03639    0  305 3546.00000 3303.03639  6.85%     - 3464s
     0     0 3303.03639    0  305 3546.00000 3303.03639  6.85%     - 3489s
     0     0 3303.07363    0  323 3546.00000 3303.07363  6.85%     - 3596s
     0     0 3303.07753    0  296 3546.00000 3303.07753  6.85%     - 3678s
     0     0 3303.07753    0  296 3546.00000 3303.07753  6.85%     - 3717s
     0     0 3303.07753    0  295 3546.00000 3303.07753  6.85%     - 3770s
     0     0 3304.71118    0  266 3546.00000 3304.71118  6.80%     - 4214s
     0     0 3304.71118    0  324 3546.00000 3304.71118  6.80%     - 5626s
